(declare-fun X_0 () Real)
(declare-fun X_1 () Real)
(declare-fun Y_0 () Real)
(declare-fun Y_1 () Real)
(declare-fun Y_2 () Real)

(assert (<= X_0 -0.1))
(assert (>= X_0 -0.19))
(assert (<= X_1 2.0))
(assert (>= X_0 1.9))

(assert (<= Y_0 8.0511))
(assert (>= Y_0 7.9111))
(assert (<= Y_1 8.4))
(assert (>= Y_1 8.3))
(assert (<= Y_2 8.398))
(assert (>= Y_2 8.318))

